p edge 22 66
e 1 4
e 1 17
e 1 20
e 2 6
e 2 7
e 2 16
e 3 5
e 3 10
e 3 22
e 4 11
e 4 11
e 4 15
e 5 4
e 5 12
e 5 22
e 6 3
e 6 9
e 6 19
e 7 2
e 7 11
e 7 14
e 8 1
e 8 3
e 8 9
e 9 6
e 9 12
e 9 15
e 10 4
e 10 8
e 10 17
e 11 7
e 11 9
e 11 17
e 12 4
e 12 10
e 12 17
e 13 6
e 13 7
e 13 19
e 14 7
e 14 13
e 14 20
e 15 5
e 15 19
e 15 20
e 16 12
e 16 19
e 16 21
e 17 8
e 17 13
e 17 18
e 18 2
e 18 7
e 18 16
e 19 5
e 19 6
e 19 12
e 20 11
e 20 21
e 20 22
e 21 12
e 21 16
e 21 19
e 22 18
e 22 20
e 22 21
